
Gurobi 8.1.1 (mac64, Python) logging started Sun Oct 25 17:00:16 2020

Academic license - for non-commercial use only
Parameter OutputFlag unchanged
   Value: 1  Min: 0  Max: 1  Default: 1
Changed value of parameter PoolSearchMode to 2
   Prev: 0  Min: 0  Max: 2  Default: 0
Changed value of parameter PoolSolutions to 100000
   Prev: 10  Min: 1  Max: 2000000000  Default: 10
Changed value of parameter MIPGap to 0.0
   Prev: 0.0001  Min: 0.0  Max: 1e+100  Default: 0.0001
Optimize a model with 186 rows, 121 columns and 1079 nonzeros
Variable types: 1 continuous, 120 integer (120 binary)
Coefficient statistics:
  Matrix range     [1e+00, 5e+01]
  Objective range  [1e+00, 1e+00]
  Bounds range     [1e+00, 1e+00]
  RHS range        [5e-01, 4e+01]
Presolve removed 181 rows and 113 columns
Presolve time: 0.00s
Presolved: 5 rows, 8 columns, 14 nonzeros
Variable types: 1 continuous, 7 integer (7 binary)
Found heuristic solution: objective 3.4291000
Found heuristic solution: objective 2.2192000

Root relaxation: objective 2.219200e+00, 1 iterations, 0.00 seconds

    Nodes    |    Current Node    |     Objective Bounds      |     Work
 Expl Unexpl |  Obj  Depth IntInf | Incumbent    BestBd   Gap | It/Node Time

     0     0          -    0         2.21920    2.21920  0.00%     -    0s
Optimal solution found at node 0 - now completing solution pool...
     0     0          -    0         2.21920    2.21920  0.00%     -    0s
     0     0          -    0         2.21920    2.21920  0.00%     -    0s
     0     2          -    0         2.21920    2.21920  0.00%     -    0s

Explored 11 nodes (5 simplex iterations) in 0.01 seconds
Thread count was 8 (of 8 available processors)

Solution count 6: 2.2192 2.2192 3.4291 ... 3.4291
No other solutions better than 1e+100

Optimal solution found (tolerance 0.00e+00)
Best objective 2.219200000000e+00, best bound 2.219200000000e+00, gap 0.0000%
Parameter SolutionNumber unchanged
   Value: 0  Min: 0  Max: 2000000000  Default: 0
Changed value of parameter SolutionNumber to 1
   Prev: 0  Min: 0  Max: 2000000000  Default: 0
Changed value of parameter SolutionNumber to 2
   Prev: 1  Min: 0  Max: 2000000000  Default: 0
Changed value of parameter SolutionNumber to 3
   Prev: 2  Min: 0  Max: 2000000000  Default: 0
Changed value of parameter SolutionNumber to 4
   Prev: 3  Min: 0  Max: 2000000000  Default: 0
Changed value of parameter SolutionNumber to 5
   Prev: 4  Min: 0  Max: 2000000000  Default: 0
Changed value of parameter SolutionNumber to 0
   Prev: 5  Min: 0  Max: 2000000000  Default: 0
Changed value of parameter SolutionNumber to 1
   Prev: 0  Min: 0  Max: 2000000000  Default: 0
Changed value of parameter SolutionNumber to 4
   Prev: 1  Min: 0  Max: 2000000000  Default: 0
Changed value of parameter SolutionNumber to 5
   Prev: 4  Min: 0  Max: 2000000000  Default: 0
Changed value of parameter SolutionNumber to 2
   Prev: 5  Min: 0  Max: 2000000000  Default: 0
Changed value of parameter SolutionNumber to 3
   Prev: 2  Min: 0  Max: 2000000000  Default: 0
